Route #1: 30 52 43 23 49 39 50 4 
Route #2: 35 10 3 22 19 8 46 
Route #3: 6 13 53 9 44 
Route #4: 34 25 47 51 24 42 41 32 16 
Route #5: 1 45 26 17 29 20 28 18 
Route #6: 14 11 38 33 21 36 7 5 
Route #7: 15 31 40 48 37 2 12 27 
cost 1386.59
execution_time 29.213
